(declare-fun temp204_2 () (_ BitVec 64))
(declare-fun temp204_1 () (_ BitVec 64))
(declare-fun temp204_3 () (_ BitVec 64))
(declare-fun var287753 () (_ BitVec 64))
(declare-fun temp204_5 () (_ BitVec 64))
(declare-fun temp204_4 () (_ BitVec 64))
(declare-fun temp204_6 () (_ BitVec 64))
(declare-fun var1183047 () (_ BitVec 64))
(declare-fun var1248594 () (_ BitVec 64))
(declare-fun temp204_7 () (_ BitVec 64))
(declare-fun var2906807 () (_ BitVec 64))
(declare-fun var2906786 () (_ BitVec 64))
(declare-fun var2841194 () (_ BitVec 64))
(declare-fun var2841183 () (_ BitVec 64))
(declare-fun var1005830 () (_ BitVec 64))
(declare-fun temp204_8 () (_ BitVec 64))
(declare-fun temp204_9 () (_ BitVec 64))
(declare-fun var1005891 () (_ BitVec 64))
(declare-fun temp204_11 () (_ BitVec 64))
(declare-fun temp204_10 () (_ BitVec 64))
(declare-fun temp204_12 () (_ BitVec 64))
(declare-fun var4721991 () (_ BitVec 64))
(declare-fun var4787538 () (_ BitVec 64))
(declare-fun temp204_14 () (_ BitVec 64))
(declare-fun temp204_13 () (_ BitVec 64))
(declare-fun temp204_16 () (_ BitVec 64))
(declare-fun temp204_15 () (_ BitVec 64))
(declare-fun temp204_17 () (_ BitVec 64))
(declare-fun var5508423 () (_ BitVec 64))
(declare-fun var5573970 () (_ BitVec 64))
(declare-fun temp204_19 () (_ BitVec 64))
(declare-fun temp204_18 () (_ BitVec 64))
(declare-fun temp204_20 () (_ BitVec 64))
(declare-fun var6692058 () (_ BitVec 64))
(declare-fun temp204_22 () (_ BitVec 64))
(declare-fun temp204_21 () (_ BitVec 64))
(declare-fun temp204_23 () (_ BitVec 64))
(assert (= temp204_2 #x0000000000000c77))
(assert (= temp204_1 temp204_2))
(assert (= temp204_3 #x0000000000000000))
(assert (= var287753 temp204_3))
(assert (= temp204_5 #x0000000000000000))
(assert (= temp204_4 temp204_5))
(assert (= temp204_6 #x0000000000000000))
(assert (= var1183047 temp204_6))
(assert (= var1248594 var1183047))
(assert (= temp204_7 #x0000000000000000))
(assert (= var2906807 temp204_7))
(assert (= var2906786 var2906807))
(assert (= var2841194 var2906786))
(assert (= var2841183 var2841194))
(assert (= var1005830 var2841183))
(assert (= temp204_8 #x0000000000000000))
(assert (= var1005830 temp204_8))
(assert (= temp204_9 #x0000000000000000))
(assert (= var1005891 temp204_9))
(assert (= temp204_11 #x0000000000000000))
(assert (= temp204_10 temp204_11))
(assert (= temp204_12 #x0000000000000000))
(assert (= var4721991 temp204_12))
(assert (= var4787538 var4721991))
(assert (= temp204_14 #x0000000000000001))
(assert (= temp204_13 temp204_14))
(assert (= temp204_16 #x0000000000000000))
(assert (= temp204_15 temp204_16))
(assert (= temp204_17 #x0000000000000000))
(assert (= var5508423 temp204_17))
(assert (= var5573970 var5508423))
(assert (= temp204_19 #xffffffffffffffff))
(assert (= temp204_18 temp204_19))
(assert (= temp204_20 #x0000000000000000))
(assert (= var6692058 temp204_20))
(assert (= temp204_22 #x0000000000000001))
(assert (= temp204_21 temp204_22))
(assert (= temp204_23 #x0000000000000000))
(assert (= var1005891 temp204_23))
(model-add temp204_2 () (_ BitVec 64) #x0000000000000c77)
(model-add temp204_1 () (_ BitVec 64) #x0000000000000c77)
(model-add temp204_3 () (_ BitVec 64) #x0000000000000000)
(model-add var287753 () (_ BitVec 64) #x0000000000000000)
(model-add temp204_5 () (_ BitVec 64) #x0000000000000000)
(model-add temp204_4 () (_ BitVec 64) #x0000000000000000)
(model-add temp204_6 () (_ BitVec 64) #x0000000000000000)
(model-add var1183047 () (_ BitVec 64) #x0000000000000000)
(model-add var1248594 () (_ BitVec 64) #x0000000000000000)
(model-add temp204_7 () (_ BitVec 64) #x0000000000000000)
(model-add var2906807 () (_ BitVec 64) #x0000000000000000)
(model-add var2906786 () (_ BitVec 64) #x0000000000000000)
(model-add var2841194 () (_ BitVec 64) #x0000000000000000)
(model-add var2841183 () (_ BitVec 64) #x0000000000000000)
(model-add var1005830 () (_ BitVec 64) #x0000000000000000)
(model-add temp204_8 () (_ BitVec 64) #x0000000000000000)






